c This is UnifRandomKSATGenerator
c uniform random 3-SAT generated instance with: 
c clause length: 3 
c number variables: 10 
c number clauses: 43 
c clause to variable ratio: 4.27 
c random number generator name: SHA1PRNG 
c random number generator provider: SUN 
c random number generator seed: 2221150425682772844 
p cnf 10 43
-2 10 5 0
-1 8 -5 0
9 -2 1 0
4 5 7 0
-4 6 7 0
2 -4 3 0
-3 4 5 0
10 4 -7 0
-2 -10 7 0
-9 -4 5 0
-10 4 -6 0
-1 8 10 0
9 2 -6 0
10 2 6 0
-2 10 -6 0
3 4 -8 0
-9 1 5 0
-9 1 6 0
-9 -10 -3 0
1 4 -7 0
-1 3 -8 0
-9 -2 -10 0
-10 3 -5 0
8 1 -5 0
-1 -6 7 0
3 5 6 0
2 3 5 0
-1 9 -4 0
-10 9 4 0
8 10 -6 0
-2 4 7 0
-2 10 4 0
1 9 6 0
8 2 4 0
9 3 6 0
8 10 6 0
-10 5 6 0
-9 3 4 0
-3 2 -8 0
-10 -3 4 0
-9 2 -5 0
-10 -3 6 0
2 -5 -7 0
